17	4
13	11	17	17	
0	0	0	0	0	3	2	3	4	
1	1	0	0	0	2	5	9	
10	0	9	4	4	3	6	7	12	
4	0	0	9	9	1	14	
4	0	0	0	7	3	8	10	11	
75	9	0	0	0	2	17	17	
100	0	8	5	10	1	17	
225	1	0	4	0	3	13	17	17	
250	3	0	0	0	3	17	17	17	
50	3	4	5	0	1	17	
175	0	3	1	9	1	17	
25	8	0	1	7	1	17	
1	0	0	3	0	1	17	
2	9	0	5	0	1	15	
6	0	3	0	1	2	16	17	
10	10	0	5	9	3	17	17	17	
0	0	0	0	0	0	
